NAME : PCB441C
TYPE : PDTSP
DIMENSION : 441
EDGE_WEIGHT_TYPE : EUC_2D
NODE_COORD_SECTION
1 200 400
2 200 500
3 200 600
4 200 700
5 200 800
6 200 900
7 200 1000
8 200 1100
9 200 1200
10 200 1300
11 200 1400
12 200 1500
13 200 1600
14 200 1700
15 200 1800
16 200 1900
17 200 2000
18 200 2100
19 200 2200
20 200 2300
21 200 2400
22 200 2500
23 200 2600
24 200 2700
25 200 2800
26 200 2900
27 200 3000
28 200 3100
29 200 3200
30 200 3300
31 200 3400
32 200 3500
33 200 3600
34 300 400
35 300 500
36 300 600
37 300 700
38 300 800
39 300 900
40 300 1000
41 300 1100
42 300 1200
43 300 1300
44 300 1400
45 300 1500
46 300 1600
47 300 1700
48 300 1800
49 300 1900
50 300 2000
51 300 2100
52 300 2200
53 300 2300
54 300 2400
55 300 2500
56 300 2600
57 300 2700
58 300 2800
59 300 2900
60 300 3000
61 300 3100
62 300 3200
63 300 3300
64 300 3400
65 300 3500
66 400 400
67 400 500
68 400 600
69 400 700
70 400 800
71 400 900
72 400 1000
73 400 1100
74 400 1200
75 400 1300
76 400 1400
77 400 1500
78 400 1600
79 400 1700
80 400 1800
81 400 1900
82 400 2000
83 400 2100
84 400 2200
85 400 2300
86 400 2400
87 400 2500
88 400 2600
89 400 2700
90 400 2800
91 400 2900
92 400 3000
93 400 3100
94 400 3200
95 400 3300
96 400 3400
97 400 3500
98 400 3600
99 500 1500
100 500 1800
101 500 3100
102 600 400
103 700 300
104 700 600
105 700 1500
106 700 1600
107 700 1800
108 700 2100
109 700 2400
110 700 2700
111 700 3000
112 700 3300
113 700 3600
114 800 300
115 800 600
116 800 1000
117 800 1500
118 800 1800
119 800 2100
120 800 2400
121 800 2600
122 800 2700
123 800 3000
124 800 3300
125 800 3600
126 900 300
127 900 600
128 900 1500
129 900 1800
130 900 2100
131 900 2400
132 900 2700
133 900 3000
134 900 3300
135 900 3600
136 1000 300
137 1000 600
138 1000 1100
139 1000 1500
140 1000 1600
141 1000 1800
142 1000 2100
143 1000 2400
144 1000 2600
145 1000 3000
146 1000 3300
147 1000 3600
148 1100 300
149 1100 600
150 1100 700
151 1100 900
152 1100 1500
153 1100 1800
154 1100 2100
155 1100 2400
156 1100 2700
157 1100 3000
158 1100 3300
159 1100 3600
160 1200 300
161 1200 600
162 1200 1500
163 1200 1700
164 1200 1800
165 1200 2100
166 1200 2400
167 1200 2700
168 1200 3000
169 1200 3300
170 1200 3600
171 1300 300
172 1300 600
173 1300 700
174 1300 1100
175 1300 1500
176 1300 1800
177 1300 2100
178 1300 2200
179 1300 2400
180 1300 2700
181 1300 3000
182 1300 3300
183 1300 3600
184 1400 300
185 1400 600
186 1400 930
187 1400 1500
188 1400 1800
189 1400 2000
190 1400 2100
191 1400 2400
192 1400 2500
193 1400 2700
194 1400 2800
195 1400 2900
196 1400 3000
197 1400 3300
198 1400 3600
199 1500 1500
200 1500 1800
201 1500 1900
202 1500 2100
203 1500 2400
204 1500 2700
205 1500 2800
206 1500 2900
207 1500 3000
208 1500 3300
209 1500 3600
210 1600 1100
211 1600 1300
212 1600 1500
213 1600 1800
214 1600 2100
215 1600 2400
216 1600 2700
217 1600 3000
218 1600 3300
219 1600 3600
220 1700 1200
221 1700 1500
222 1700 1800
223 1700 2100
224 1700 2400
225 1700 3600
226 1800 300
227 1800 600
228 1800 1200
229 1800 1500
230 1800 1800
231 1800 2100
232 1800 2400
233 1900 300
234 1900 600
235 1900 3000
236 1900 3500
237 2000 300
238 2000 370
239 2000 600
240 2000 800
241 2000 900
242 2000 1000
243 2000 1100
244 2000 1200
245 2000 1300
246 2000 1400
247 2000 1500
248 2000 1600
249 2000 1700
250 2000 1800
251 2000 1900
252 2000 2000
253 2000 2100
254 2000 2200
255 2000 2300
256 2000 2400
257 2000 2500
258 2000 2600
259 2000 2700
260 2000 2800
261 2000 2900
262 2000 3000
263 2000 3100
264 2000 3500
265 2100 300
266 2100 600
267 2100 3200
268 2200 300
269 2200 470
270 2200 600
271 2200 3200
272 2300 300
273 2300 600
274 2300 3400
275 2400 300
276 2400 600
277 2400 2100
278 2500 300
279 2500 800
280 2600 400
281 2600 500
282 2600 800
283 2600 900
284 2600 1000
285 2600 1100
286 2600 1200
287 2600 1300
288 2600 1400
289 2600 1500
290 2600 1600
291 2600 1700
292 2600 1800
293 2600 1900
294 2600 2000
295 2600 2100
296 2600 2200
297 2600 2300
298 2600 2400
299 2600 2500
300 2600 2600
301 2600 2700
302 2600 2800
303 2600 2900
304 2600 3000
305 2600 3100
306 2600 3400
307 2700 700
308 2700 800
309 2700 900
310 2700 1000
311 2700 1100
312 2700 1200
313 2700 1300
314 2700 1400
315 2700 1500
316 2700 1600
317 2700 1700
318 2700 1800
319 2700 1900
320 2700 2000
321 2700 2100
322 2700 2200
323 2700 2300
324 2700 2500
325 2700 2600
326 2700 2700
327 2700 2800
328 2700 2900
329 2700 3000
330 2700 3100
331 2700 3200
332 2700 3300
333 2700 3400
334 2700 3500
335 2700 3600
336 2700 3700
337 2700 3800
338 2800 900
339 2800 1100
340 2900 400
341 2900 500
342 2900 1400
343 2900 2400
344 2900 3000
345 3000 700
346 3000 800
347 3000 900
348 3000 1000
349 3000 1100
350 3000 1200
351 3000 1300
352 3000 1500
353 3000 1600
354 3000 1700
355 3000 1800
356 3000 1900
357 3000 2000
358 3000 2100
359 3000 2200
360 3000 2300
361 3000 2500
362 3000 2600
363 3000 2700
364 3000 2800
365 3000 2900
366 3000 3000
367 3000 3100
368 3000 3200
369 3000 3300
370 3000 3400
371 3000 3500
372 3000 3600
373 3000 3700
374 3000 3800
375 150 3500
376 150 3500
377 470 2500
378 470 3300
379 470 3500
380 540 2300
381 540 2400
382 620 3700
383 620 3700
384 750 2500
385 850 520
386 850 700
387 850 2300
388 940 740
389 950 2200
390 910 2600
391 1000 1000
392 1100 1400
393 1200 2300
394 1200 2200
395 1400 750
396 1400 1700
397 1400 2100
398 1500 770
399 1500 300
400 1500 500
401 1500 1900
402 1600 1000
403 1700 2700
404 1700 310
405 1700 510
406 1800 750
407 1800 2600
408 1700 2600
409 1800 3300
410 1700 3400
411 1800 2700
412 1800 2800
413 1800 3500
414 2100 1600
415 2000 3200
416 2200 1900
417 2100 2000
418 2100 2800
419 2200 3300
420 2300 1400
421 2200 2800
422 2300 3300
423 2400 1300
424 2300 1500
425 2500 710
426 2600 3700
427 2800 520
428 2800 2400
429 2800 2200
430 2800 2700
431 2800 3300
432 2900 950
433 3000 1800
434 3000 2000
435 520 3200
436 2300 3500
437 2300 3200
438 530 2100
439 2500 710
440 750 490
441 0 0
PICKUP_AND_DELIVERY_SECTION
1 0 0 0 0 0 0
2 0 0 0 0 0 414
3 0 0 0 0 358 0
4 0 0 0 0 128 0
5 0 0 0 0 31 0
6 0 0 0 0 432 0
7 0 0 0 0 125 0
8 0 0 0 0 0 30
9 0 0 0 0 0 118
10 0 0 0 0 0 245
11 0 0 0 0 0 413
12 0 0 0 0 0 269
13 0 0 0 0 0 215
14 0 0 0 0 71 0
15 0 0 0 0 394 0
16 0 0 0 0 0 33
17 0 0 0 0 158 0
18 0 0 0 0 240 0
19 0 0 0 0 0 235
20 0 0 0 0 0 103
21 0 0 0 0 0 282
22 0 0 0 0 419 0
23 0 0 0 0 287 0
24 0 0 0 0 0 132
25 0 0 0 0 57 0
26 0 0 0 0 193 0
27 0 0 0 0 405 0
28 0 0 0 0 363 0
29 0 0 0 0 0 157
30 0 0 0 0 8 0
31 0 0 0 0 0 5
32 0 0 0 0 301 0
33 0 0 0 0 16 0
34 0 0 0 0 0 242
35 0 0 0 0 0 182
36 0 0 0 0 0 337
37 0 0 0 0 0 353
38 0 0 0 0 93 0
39 0 0 0 0 426 0
40 0 0 0 0 327 0
41 0 0 0 0 0 101
42 0 0 0 0 0 373
43 0 0 0 0 0 164
44 0 0 0 0 143 0
45 0 0 0 0 0 279
46 0 0 0 0 76 0
47 0 0 0 0 91 0
48 0 0 0 0 0 197
49 0 0 0 0 0 281
50 0 0 0 0 0 428
51 0 0 0 0 308 0
52 0 0 0 0 0 138
53 0 0 0 0 0 425
54 0 0 0 0 0 396
55 0 0 0 0 0 146
56 0 0 0 0 241 0
57 0 0 0 0 0 25
58 0 0 0 0 0 84
59 0 0 0 0 0 424
60 0 0 0 0 0 417
61 0 0 0 0 208 0
62 0 0 0 0 0 108
63 0 0 0 0 0 184
64 0 0 0 0 0 112
65 0 0 0 0 402 0
66 0 0 0 0 137 0
67 0 0 0 0 117 0
68 0 0 0 0 0 238
69 0 0 0 0 0 408
70 0 0 0 0 0 163
71 0 0 0 0 0 14
72 0 0 0 0 0 236
73 0 0 0 0 0 239
74 0 0 0 0 233 0
75 0 0 0 0 362 0
76 0 0 0 0 0 46
77 0 0 0 0 0 393
78 0 0 0 0 253 0
79 0 0 0 0 330 0
80 0 0 0 0 121 0
81 0 0 0 0 0 267
82 0 0 0 0 0 286
83 0 0 0 0 0 248
84 0 0 0 0 58 0
85 0 0 0 0 0 140
86 0 0 0 0 210 0
87 0 0 0 0 104 0
88 0 0 0 0 0 295
89 0 0 0 0 207 0
90 0 0 0 0 380 0
91 0 0 0 0 0 47
92 0 0 0 0 0 167
93 0 0 0 0 0 38
94 0 0 0 0 313 0
95 0 0 0 0 206 0
96 0 0 0 0 249 0
97 0 0 0 0 311 0
98 0 0 0 0 154 0
99 0 0 0 0 387 0
100 0 0 0 0 0 110
101 0 0 0 0 41 0
102 0 0 0 0 0 439
103 0 0 0 0 20 0
104 0 0 0 0 0 87
105 0 0 0 0 0 246
106 0 0 0 0 0 370
107 0 0 0 0 129 0
108 0 0 0 0 62 0
109 0 0 0 0 0 179
110 0 0 0 0 100 0
111 0 0 0 0 224 0
112 0 0 0 0 64 0
113 0 0 0 0 141 0
114 0 0 0 0 150 0
115 0 0 0 0 0 190
116 0 0 0 0 371 0
117 0 0 0 0 0 67
118 0 0 0 0 9 0
119 0 0 0 0 120 0
120 0 0 0 0 0 119
121 0 0 0 0 0 80
122 0 0 0 0 0 431
123 0 0 0 0 0 319
124 0 0 0 0 0 247
125 0 0 0 0 0 7
126 0 0 0 0 0 131
127 0 0 0 0 420 0
128 0 0 0 0 0 4
129 0 0 0 0 0 107
130 0 0 0 0 0 379
131 0 0 0 0 126 0
132 0 0 0 0 24 0
133 0 0 0 0 266 0
134 0 0 0 0 0 290
135 0 0 0 0 0 390
136 0 0 0 0 270 0
137 0 0 0 0 0 66
138 0 0 0 0 52 0
139 0 0 0 0 0 359
140 0 0 0 0 85 0
141 0 0 0 0 0 113
142 0 0 0 0 298 0
143 0 0 0 0 0 44
144 0 0 0 0 0 203
145 0 0 0 0 198 0
146 0 0 0 0 55 0
147 0 0 0 0 161 0
148 0 0 0 0 0 276
149 0 0 0 0 165 0
150 0 0 0 0 0 114
151 0 0 0 0 360 0
152 0 0 0 0 352 0
153 0 0 0 0 0 223
154 0 0 0 0 0 98
155 0 0 0 0 0 397
156 0 0 0 0 0 271
157 0 0 0 0 29 0
158 0 0 0 0 0 17
159 0 0 0 0 304 0
160 0 0 0 0 398 0
161 0 0 0 0 0 147
162 0 0 0 0 225 0
163 0 0 0 0 70 0
164 0 0 0 0 43 0
165 0 0 0 0 0 149
166 0 0 0 0 0 315
167 0 0 0 0 92 0
168 0 0 0 0 244 0
169 0 0 0 0 401 0
170 0 0 0 0 0 252
171 0 0 0 0 0 257
172 0 0 0 0 344 0
173 0 0 0 0 243 0
174 0 0 0 0 256 0
175 0 0 0 0 388 0
176 0 0 0 0 217 0
177 0 0 0 0 0 333
178 0 0 0 0 0 180
179 0 0 0 0 109 0
180 0 0 0 0 178 0
181 0 0 0 0 406 0
182 0 0 0 0 35 0
183 0 0 0 0 216 0
184 0 0 0 0 63 0
185 0 0 0 0 0 331
186 0 0 0 0 381 0
187 0 0 0 0 423 0
188 0 0 0 0 367 0
189 0 0 0 0 410 0
190 0 0 0 0 115 0
191 0 0 0 0 351 0
192 0 0 0 0 0 228
193 0 0 0 0 0 26
194 0 0 0 0 0 399
195 0 0 0 0 0 214
196 0 0 0 0 222 0
197 0 0 0 0 48 0
198 0 0 0 0 0 145
199 0 0 0 0 349 0
200 0 0 0 0 0 275
201 0 0 0 0 0 274
202 0 0 0 0 0 343
203 0 0 0 0 144 0
204 0 0 0 0 427 0
205 0 0 0 0 0 312
206 0 0 0 0 0 95
207 0 0 0 0 0 89
208 0 0 0 0 0 61
209 0 0 0 0 0 430
210 0 0 0 0 0 86
211 0 0 0 0 411 0
212 0 0 0 0 306 0
213 0 0 0 0 0 221
214 0 0 0 0 195 0
215 0 0 0 0 13 0
216 0 0 0 0 0 183
217 0 0 0 0 0 176
218 0 0 0 0 260 0
219 0 0 0 0 355 0
220 0 0 0 0 229 0
221 0 0 0 0 213 0
222 0 0 0 0 0 196
223 0 0 0 0 153 0
224 0 0 0 0 0 111
225 0 0 0 0 0 162
226 0 0 0 0 0 435
227 0 0 0 0 0 361
228 0 0 0 0 192 0
229 0 0 0 0 0 220
230 0 0 0 0 0 268
231 0 0 0 0 322 0
232 0 0 0 0 0 296
233 0 0 0 0 0 74
234 0 0 0 0 0 377
235 0 0 0 0 19 0
236 0 0 0 0 72 0
237 0 0 0 0 365 0
238 0 0 0 0 68 0
239 0 0 0 0 73 0
240 0 0 0 0 0 18
241 0 0 0 0 0 56
242 0 0 0 0 34 0
243 0 0 0 0 0 173
244 0 0 0 0 0 168
245 0 0 0 0 10 0
246 0 0 0 0 105 0
247 0 0 0 0 124 0
248 0 0 0 0 83 0
249 0 0 0 0 0 96
250 0 0 0 0 378 0
251 0 0 0 0 0 258
252 0 0 0 0 170 0
253 0 0 0 0 0 78
254 0 0 0 0 403 0
255 0 0 0 0 348 0
256 0 0 0 0 0 174
257 0 0 0 0 171 0
258 0 0 0 0 251 0
259 0 0 0 0 0 366
260 0 0 0 0 0 218
261 0 0 0 0 294 0
262 0 0 0 0 357 0
263 0 0 0 0 342 0
264 0 0 0 0 0 283
265 0 0 0 0 429 0
266 0 0 0 0 0 133
267 0 0 0 0 81 0
268 0 0 0 0 230 0
269 0 0 0 0 12 0
270 0 0 0 0 0 136
271 0 0 0 0 156 0
272 0 0 0 0 345 0
273 0 0 0 0 0 404
274 0 0 0 0 201 0
275 0 0 0 0 200 0
276 0 0 0 0 148 0
277 0 0 0 0 376 0
278 0 0 0 0 0 383
279 0 0 0 0 45 0
280 0 0 0 0 0 292
281 0 0 0 0 49 0
282 0 0 0 0 21 0
283 0 0 0 0 264 0
284 0 0 0 0 418 0
285 0 0 0 0 0 389
286 0 0 0 0 82 0
287 0 0 0 0 0 23
288 0 0 0 0 0 395
289 0 0 0 0 0 341
290 0 0 0 0 134 0
291 0 0 0 0 0 364
292 0 0 0 0 280 0
293 0 0 0 0 0 416
294 0 0 0 0 0 261
295 0 0 0 0 88 0
296 0 0 0 0 232 0
297 0 0 0 0 407 0
298 0 0 0 0 0 142
299 0 0 0 0 310 0
300 0 0 0 0 0 433
301 0 0 0 0 0 32
302 0 0 0 0 0 438
303 0 0 0 0 0 305
304 0 0 0 0 0 159
305 0 0 0 0 303 0
306 0 0 0 0 0 212
307 0 0 0 0 0 339
308 0 0 0 0 0 51
309 0 0 0 0 372 0
310 0 0 0 0 0 299
311 0 0 0 0 0 97
312 0 0 0 0 205 0
313 0 0 0 0 0 94
314 0 0 0 0 0 350
315 0 0 0 0 166 0
316 0 0 0 0 436 0
317 0 0 0 0 347 0
318 0 0 0 0 324 0
319 0 0 0 0 123 0
320 0 0 0 0 0 368
321 0 0 0 0 0 412
322 0 0 0 0 0 231
323 0 0 0 0 0 334
324 0 0 0 0 0 318
325 0 0 0 0 385 0
326 0 0 0 0 0 338
327 0 0 0 0 0 40
328 0 0 0 0 336 0
329 0 0 0 0 0 434
330 0 0 0 0 0 79
331 0 0 0 0 185 0
332 0 0 0 0 0 440
333 0 0 0 0 177 0
334 0 0 0 0 323 0
335 0 0 0 0 0 421
336 0 0 0 0 0 328
337 0 0 0 0 36 0
338 0 0 0 0 326 0
339 0 0 0 0 307 0
340 0 0 0 0 437 0
341 0 0 0 0 289 0
342 0 0 0 0 0 263
343 0 0 0 0 202 0
344 0 0 0 0 0 172
345 0 0 0 0 0 272
346 0 0 0 0 441 0
347 0 0 0 0 0 317
348 0 0 0 0 0 255
349 0 0 0 0 0 199
350 0 0 0 0 314 0
351 0 0 0 0 0 191
352 0 0 0 0 0 152
353 0 0 0 0 37 0
354 0 0 0 0 400 0
355 0 0 0 0 0 219
356 0 0 0 0 392 0
357 0 0 0 0 0 262
358 0 0 0 0 0 3
359 0 0 0 0 139 0
360 0 0 0 0 0 151
361 0 0 0 0 227 0
362 0 0 0 0 0 75
363 0 0 0 0 0 28
364 0 0 0 0 291 0
365 0 0 0 0 0 237
366 0 0 0 0 259 0
367 0 0 0 0 0 188
368 0 0 0 0 320 0
369 0 0 0 0 0 409
370 0 0 0 0 106 0
371 0 0 0 0 0 116
372 0 0 0 0 0 309
373 0 0 0 0 42 0
374 0 0 0 0 382 0
375 0 0 0 0 415 0
376 0 0 0 0 0 277
377 0 0 0 0 234 0
378 0 0 0 0 0 250
379 0 0 0 0 130 0
380 0 0 0 0 0 90
381 0 0 0 0 0 186
382 0 0 0 0 0 374
383 0 0 0 0 278 0
384 0 0 0 0 386 0
385 0 0 0 0 0 325
386 0 0 0 0 0 384
387 0 0 0 0 0 99
388 0 0 0 0 0 175
389 0 0 0 0 285 0
390 0 0 0 0 135 0
391 0 0 0 0 422 0
392 0 0 0 0 0 356
393 0 0 0 0 77 0
394 0 0 0 0 0 15
395 0 0 0 0 288 0
396 0 0 0 0 54 0
397 0 0 0 0 155 0
398 0 0 0 0 0 160
399 0 0 0 0 194 0
400 0 0 0 0 0 354
401 0 0 0 0 0 169
402 0 0 0 0 0 65
403 0 0 0 0 0 254
404 0 0 0 0 273 0
405 0 0 0 0 0 27
406 0 0 0 0 0 181
407 0 0 0 0 0 297
408 0 0 0 0 69 0
409 0 0 0 0 369 0
410 0 0 0 0 0 189
411 0 0 0 0 0 211
412 0 0 0 0 321 0
413 0 0 0 0 11 0
414 0 0 0 0 2 0
415 0 0 0 0 0 375
416 0 0 0 0 293 0
417 0 0 0 0 60 0
418 0 0 0 0 0 284
419 0 0 0 0 0 22
420 0 0 0 0 0 127
421 0 0 0 0 335 0
422 0 0 0 0 0 391
423 0 0 0 0 0 187
424 0 0 0 0 59 0
425 0 0 0 0 53 0
426 0 0 0 0 0 39
427 0 0 0 0 0 204
428 0 0 0 0 50 0
429 0 0 0 0 0 265
430 0 0 0 0 209 0
431 0 0 0 0 122 0
432 0 0 0 0 0 6
433 0 0 0 0 300 0
434 0 0 0 0 329 0
435 0 0 0 0 226 0
436 0 0 0 0 0 316
437 0 0 0 0 0 340
438 0 0 0 0 302 0
439 0 0 0 0 102 0
440 0 0 0 0 332 0
441 0 0 0 0 0 346
DEPOT_SECTION
1 
-1
EOF
